Comps = {frontend0, frontend1, frontend2, backend0, backend1, backend2, database0, database1};
mustComps = {frontend0, frontend1, frontend2};
Flavs = {tiny, medium, large};
Nodes = {n1, n2, n3};
CRes = {CPU, RAM, storage, bwIn, bwOut};
NRes = {ssl, fwall, encr, avail, latency};
Flav = [{medium, large}, {medium, large}, {medium, large}, {tiny, medium, large}, {tiny, medium, large}, {tiny, medium, large}, {large}, {large}];
Uses = [{backend1}, {backend1}, {backend2}, {backend1}, {backend1}, {backend2}, {}, {}, {}, {database0}, {database1}, {database1}, {database0}, {database1}, {database1}, {}, {}];
MAX_BOUND = 1000000;

worstBounds = [0, 0, 0, 0, 0, 0, 0, 0, 0, MAX_BOUND];
bestBounds = [MAX_BOUND - i | i in worstBounds];

comReq = array2d(CompFlavs, Res, [
  2, 264, 422, 896, 273, 1, 0, 0, 96, MAX_BOUND,
  2, 378, 287, 435, 517, 1, 0, 1, 96, MAX_BOUND,
  2, 484, 455, 324, 679, 1, 1, 0, 95, MAX_BOUND,
  2, 347, 379, 393, 523, 1, 0, 0, 97, MAX_BOUND,
  4, 234, 321, 413, 277, 1, 0, 1, 95, MAX_BOUND,
  8, 277, 259, 686, 511, 1, 1, 0, 96, MAX_BOUND,
  2, 408, 420, 855, 303, 1, 1, 1, 95, MAX_BOUND,
  8, 297, 317, 611, 564, 0, 0, 1, 97, MAX_BOUND,
  2, 351, 432, 322, 252, 1, 1, 1, 96, MAX_BOUND,
  8, 311, 457, 575, 541, 1, 1, 0, 95, MAX_BOUND,
  2, 277, 251, 664, 961, 1, 0, 1, 97, MAX_BOUND,
  2, 200, 272, 457, 702, 1, 0, 0, 97, MAX_BOUND,
  2, 347, 425, 815, 980, 0, 1, 0, 97, MAX_BOUND,
  2, 257, 264, 521, 394, 1, 0, 1, 95, MAX_BOUND,
  4, 323, 434, 807, 392, 1, 1, 1, 95, MAX_BOUND,
  2, 436, 234, 560, 828, 1, 0, 0, 96, MAX_BOUND,
  2, 478, 356, 912, 535, 0, 0, 1, 97, MAX_BOUND,
]);

nodeCap = array2d(Nodes0, Res, [bestBounds[r] | r in Res] ++ [
  32, 39776, 420903, 16208, 10644, 1, 1, 1, 99, 0,
  16, 95432, 214371, 17357, 13700, 0, 0, 1, 98, 0,
  16, 61970, 316192, 24634, 12249, 1, 1, 0, 99, 0,
]);

cost = array2d(Nodes0, Res, [
  0, 0, 0, 0, 0, 0, 0, 0, 0, 0, % no node
  13, 6, 23, 0, 0, 0, 0, 0, 0, 0,
  17, 10, 18, 0, 0, 0, 0, 0, 0, 0,
  13, 9, 24, 0, 0, 0, 0, 0, 0, 0,
]);

cons = array2d(Nodes0, Res, [
  0, 0, 0, 0, 0, 0, 0, 0, 0, 0, % no node
  26, 22, 46, 0, 0, 0, 0, 0, 0, 0,
  39, 24, 40, 0, 0, 0, 0, 0, 0, 0,
  42, 22, 17, 0, 0, 0, 0, 0, 0, 0,
]);

costWeight = 0;
consWeight = 1;

costBudget = 78478;
consBudget = 72443;

depReq = array3d(Comps, Comps, Res, [
  if c1 = frontend2 /\ c2 = backend0 /\ r = N(avail) then
    96
  elseif c1 = frontend2 /\ c2 = backend2 /\ r = N(avail) then
    95
  elseif c1 = frontend0 /\ c2 = backend2 /\ r = N(avail) then
    96
  elseif c1 = frontend0 /\ c2 = backend0 /\ r = N(avail) then
    95
  elseif c1 = frontend2 /\ c2 = backend1 /\ r = N(avail) then
    95
  elseif c1 = frontend1 /\ c2 = backend1 /\ r = N(avail) then
    97
  elseif c1 = frontend1 /\ c2 = backend0 /\ r = N(avail) then
    95
  else
    worstBounds[r]
  endif | c1 in Comps, c2 in Comps, r in Res]);

linkCap = array3d(Nodes0, Nodes0, Res, [
  if ni = 0 \/ nj = 0 then
    bestBounds[r]
  elseif ni = nj /\ r = N(avail) then
    nodeCap[ni,r]
  elseif {ni, nj} = {n1, n3} /\ r = N(avail) then
    98
  elseif {ni, nj} = {n1, n2} /\ r = N(avail) then
    98
  elseif {ni, nj} = {n2, n3} /\ r = N(avail) then
    99
  else
    worstBounds[r]
  endif | ni in Nodes0, nj in Nodes0, r in Res]);

imp = array2d(Comps, Flavs, [
  2, 3, 8,
  2, 5, 10,
  1, 5, 8,
  2, 6, 10,
  3, 4, 5,
  1, 5, 6,
  3, 6, 10,
  7, 8, 10,
]);

